[on. 05. april 13:40:28 +0200 2023]  ./input/alternate_g_np_100/100-2-3.gcc
Set parameter Username
Academic license - for non-commercial use only - expires 2024-03-28
Set parameter TimeLimit to value 1800
Set parameter PreCrush to value 1
Set parameter LazyConstraints to value 1
Gurobi Optimizer version 10.0.1 build v10.0.1rc0 (linux64)

CPU model: AMD Ryzen 9 5950X 16-Core Processor, instruction set [SSE2|AVX|AVX2]
Thread count: 16 physical cores, 32 logical processors, using up to 32 threads

Optimize a model with 101 rows, 200 columns and 400 nonzeros
Model fingerprint: 0xc45046f7
Variable types: 0 continuous, 200 integer (200 binary)
Coefficient statistics:
  Matrix range     [1e+00, 1e+00]
  Objective range  [1e+00, 1e+02]
  Bounds range     [1e+00, 1e+00]
  RHS range        [1e+00, 1e+00]
Presolve time: 0.00s
Presolved: 101 rows, 200 columns, 400 nonzeros
Variable types: 0 continuous, 200 integer (200 binary)

Root relaxation: objective 4.661000e+03, 1 iterations, 0.00 seconds (0.00 work units)

    Nodes    |    Current Node    |     Objective Bounds      |     Work
 Expl Unexpl |  Obj  Depth IntInf | Incumbent    BestBd   Gap | It/Node Time

     0     0 4661.00000    0    -          - 4661.00000      -     -    0s
     0     0 4661.00000    0    -          - 4661.00000      -     -    0s
     0     0 4661.00000    0    -          - 4661.00000      -     -    0s
     0     0 4661.00000    0   10          - 4661.00000      -     -    0s
     0     0 4653.00000    0    8          - 4653.00000      -     -    0s
     0     0 4653.00000    0   10          - 4653.00000      -     -    0s
     0     2 4653.00000    0   12          - 4653.00000      -     -    0s
 25170 11711 4331.87342   30   53          - 4380.47619      -  12.4    5s
 47281 21297 infeasible   50               - 4327.00000      -  12.7   10s
 69539 25343 3937.35897   37   30          - 4255.00000      -  12.2   15s
 83135 33700 3964.00000   35    -          - 4239.97022      -  13.6   20s
 93808 40214 3856.00000   31   32          - 4232.00000      -  14.3   25s
*97992 36870              44    3744.0000000 4228.00000  12.9%  14.6   26s
H99050 34863                    3763.0000000 4228.00000  12.4%  14.6   28s
H99050 33119                    3764.0000000 4228.00000  12.3%  14.6   28s
 99179 33219 3993.67672   31   68 3764.00000 4134.00000  9.83%  14.8   30s
 100925 33728 infeasible   53      3764.00000 4134.00000  9.83%  15.3   35s
 104988 34615 infeasible   44      3764.00000 4020.89286  6.82%  15.6   40s
 108994 34824 3772.00000   44   31 3764.00000 3963.70636  5.31%  16.1   45s
*109614 30696              41    3868.0000000 3958.82000  2.35%  16.2   46s
*109771 29071              42    3946.0000000 3958.82000  0.32%  16.2   46s

Cutting planes:
  User: 832
  Lazy constraints: 1265

Explored 111961 nodes (1781622 simplex iterations) in 46.49 seconds (40.90 work units)
Thread count was 32 (of 32 available processors)

Solution count 5: 3946 3868 3764 ... 3744

Optimal solution found (tolerance 1.00e-04)
Best objective 3.946000000000e+03, best bound 3.946000000000e+03, gap 0.0000%

User-callback calls 233064, time in user-callback 17.39 sec
Minimal separator inequalities added: 101169
Indegree inequalities added: 164944
Passed solution check
[on. 05. april 13:41:15 +0200 2023]  done

